c colouring generated by benchmark framework
p edge 125 3891
v 1 24
v 2 22
v 3 0
v 4 6
v 5 15
v 6 4
v 7 24
v 8 18
v 9 17
v 10 9
v 11 2
v 12 25
v 13 11
v 14 12
v 15 4
v 16 4
v 17 22
v 18 19
v 19 16
v 20 8
v 21 21
v 22 12
v 23 20
v 24 19
v 25 3
v 26 5
v 27 2
v 28 25
v 29 13
v 30 7
v 31 6
v 32 14
v 33 6
v 34 15
v 35 1
v 36 1
v 37 15
v 38 8
v 39 15
v 40 11
v 41 20
v 42 7
v 43 7
v 44 16
v 45 23
v 46 11
v 47 0
v 48 0
v 49 25
v 50 4
v 51 3
v 52 1
v 53 12
v 54 7
v 55 18
v 56 5
v 57 6
v 58 23
v 59 21
v 60 14
v 61 19
v 62 4
v 63 22
v 64 2
v 65 13
v 66 24
v 67 18
v 68 13
v 69 20
v 70 1
v 71 18
v 72 3
v 73 24
v 74 8
v 75 19
v 76 16
v 77 21
v 78 3
v 79 20
v 80 9
v 81 2
v 82 10
v 83 12
v 84 20
v 85 10
v 86 22
v 87 3
v 88 3
v 89 5
v 90 9
v 91 6
v 92 5
v 93 8
v 94 15
v 95 21
v 96 21
v 97 11
v 98 17
v 99 8
v 100 25
v 101 7
v 102 17
v 103 13
v 104 11
v 105 21
v 106 23
v 107 9
v 108 20
v 109 0
v 110 23
v 111 10
v 112 17
v 113 12
v 114 20
v 115 5
v 116 14
v 117 12
v 118 10
v 119 22
v 120 14
v 121 13
v 122 11
v 123 1
v 124 18
v 125 17
